certificates/rado_a10_c262_N27.cnf
c Rad2 upper bound instance: x1 + 10*x2 - x3 = 262, interval [1,27]
p cnf 27 128
1 9 27 0
-1 -9 -27 0
2 10 27 0
-2 -10 -27 0
1 3 26 0
-1 -3 -26 0
3 11 27 0
-3 -11 -27 0
2 4 26 0
-2 -4 -26 0
4 12 27 0
-4 -12 -27 0
3 5 26 0
-3 -5 -26 0
5 13 27 0
-5 -13 -27 0
4 6 26 0
-4 -6 -26 0
6 14 27 0
-6 -14 -27 0
5 7 26 0
-5 -7 -26 0
7 15 27 0
-7 -15 -27 0
6 8 26 0
-6 -8 -26 0
8 16 27 0
-8 -16 -27 0
7 9 26 0
-7 -9 -26 0
9 17 27 0
-9 -17 -27 0
8 10 26 0
-8 -10 -26 0
10 18 27 0
-10 -18 -27 0
9 11 26 0
-9 -11 -26 0
11 19 27 0
-11 -19 -27 0
10 12 26 0
-10 -12 -26 0
12 20 27 0
-12 -20 -27 0
1 13 25 0
-1 -13 -25 0
11 13 26 0
-11 -13 -26 0
13 21 27 0
-13 -21 -27 0
2 14 25 0
-2 -14 -25 0
12 14 26 0
-12 -14 -26 0
14 22 27 0
-14 -22 -27 0
3 15 25 0
-3 -15 -25 0
13 15 26 0
-13 -15 -26 0
15 23 27 0
-15 -23 -27 0
4 16 25 0
-4 -16 -25 0
14 16 26 0
-14 -16 -26 0
16 24 27 0
-16 -24 -27 0
5 17 25 0
-5 -17 -25 0
15 17 26 0
-15 -17 -26 0
17 25 27 0
-17 -25 -27 0
6 18 25 0
-6 -18 -25 0
16 18 26 0
-16 -18 -26 0
18 26 27 0
-18 -26 -27 0
7 19 25 0
-7 -19 -25 0
17 19 26 0
-17 -19 -26 0
19 27 0
-19 -27 0
8 20 25 0
-8 -20 -25 0
18 20 26 0
-18 -20 -26 0
9 21 25 0
-9 -21 -25 0
19 21 26 0
-19 -21 -26 0
10 22 25 0
-10 -22 -25 0
20 22 26 0
-20 -22 -26 0
1 23 24 0
-1 -23 -24 0
11 23 25 0
-11 -23 -25 0
21 23 26 0
-21 -23 -26 0
2 24 0
-2 -24 0
12 24 25 0
-12 -24 -25 0
22 24 26 0
-22 -24 -26 0
3 24 25 0
-3 -24 -25 0
13 25 0
-13 -25 0
23 25 26 0
-23 -25 -26 0
4 24 26 0
-4 -24 -26 0
14 25 26 0
-14 -25 -26 0
24 26 0
-24 -26 0
5 24 27 0
-5 -24 -27 0
15 25 27 0
-15 -25 -27 0
25 26 27 0
-25 -26 -27 0
