certificates/rado_a10_c262_N27.drat
-26 -27 0
-27 0
19 0
26 0
-24 0
-17 0
-21 0
2 0
16 0
5 0
9 0
25 0
13 0
-4 0
-14 0
-18 0
-3 0
-7 0
-11 0
0
